certificates/rado_a9_c218_N25.cnf
c Rad2 upper bound instance: x1 + 9*x2 - x3 = 218, interval [1,25]
p cnf 25 120
1 8 25 0
-1 -8 -25 0
2 9 25 0
-2 -9 -25 0
1 3 24 0
-1 -3 -24 0
3 10 25 0
-3 -10 -25 0
2 4 24 0
-2 -4 -24 0
4 11 25 0
-4 -11 -25 0
3 5 24 0
-3 -5 -24 0
5 12 25 0
-5 -12 -25 0
4 6 24 0
-4 -6 -24 0
6 13 25 0
-6 -13 -25 0
5 7 24 0
-5 -7 -24 0
7 14 25 0
-7 -14 -25 0
6 8 24 0
-6 -8 -24 0
8 15 25 0
-8 -15 -25 0
7 9 24 0
-7 -9 -24 0
9 16 25 0
-9 -16 -25 0
8 10 24 0
-8 -10 -24 0
10 17 25 0
-10 -17 -25 0
9 11 24 0
-9 -11 -24 0
11 18 25 0
-11 -18 -25 0
1 12 23 0
-1 -12 -23 0
10 12 24 0
-10 -12 -24 0
12 19 25 0
-12 -19 -25 0
2 13 23 0
-2 -13 -23 0
11 13 24 0
-11 -13 -24 0
13 20 25 0
-13 -20 -25 0
3 14 23 0
-3 -14 -23 0
12 14 24 0
-12 -14 -24 0
14 21 25 0
-14 -21 -25 0
4 15 23 0
-4 -15 -23 0
13 15 24 0
-13 -15 -24 0
15 22 25 0
-15 -22 -25 0
5 16 23 0
-5 -16 -23 0
14 16 24 0
-14 -16 -24 0
16 23 25 0
-16 -23 -25 0
6 17 23 0
-6 -17 -23 0
15 17 24 0
-15 -17 -24 0
17 24 25 0
-17 -24 -25 0
7 18 23 0
-7 -18 -23 0
16 18 24 0
-16 -18 -24 0
18 25 0
-18 -25 0
8 19 23 0
-8 -19 -23 0
17 19 24 0
-17 -19 -24 0
9 20 23 0
-9 -20 -23 0
18 20 24 0
-18 -20 -24 0
1 21 22 0
-1 -21 -22 0
10 21 23 0
-10 -21 -23 0
19 21 24 0
-19 -21 -24 0
2 22 0
-2 -22 0
11 22 23 0
-11 -22 -23 0
20 22 24 0
-20 -22 -24 0
3 22 23 0
-3 -22 -23 0
12 23 0
-12 -23 0
21 23 24 0
-21 -23 -24 0
4 22 24 0
-4 -22 -24 0
13 23 24 0
-13 -23 -24 0
22 24 0
-22 -24 0
5 22 25 0
-5 -22 -25 0
14 23 25 0
-14 -23 -25 0
23 24 25 0
-23 -24 -25 0
