certificates/rado_a9_c218_N25.drat
-24 -25 0
d -17 -24 -25 0
-25 0
18 0
24 0
-22 0
-16 0
-20 0
2 0
15 0
5 0
9 0
23 0
13 0
-4 0
0
